p cnf 290 1036
2 -11 -42 0
-8 -23 35 0
-33 -23 -41 0
-39 30 13 0
-15 -22 -3 0
11 -36 8 0
-39 -7 16 0
-1 -32 -21 0
-1 -8 -50 0
6 -39 30 0
-26 -41 38 0
-6 -5 -16 0
-38 -40 -8 0
36 -1 13 0
40 -50 30 0
-25 -47 8 0
-42 43 47 0
-12 -49 -35 0
-2 11 -43 0
-8 28 20 0
22 12 3 0
19 42 43 0
20 -31 26 0
4 40 -38 0
3 34 44 0
-4 -11 48 0
9 15 34 0
-20 -38 25 0
36 6 -43 0
7 -29 38 0
16 -13 34 0
-26 44 -13 0
-12 -9 31 0
3 33 30 0
28 -14 -50 0
-49 -40 -21 0
33 50 17 0
-13 -10 22 0
11 37 -8 0
-37 44 36 0
-18 3 35 0
30 -18 -46 0
-11 -38 -16 0
50 31 -20 0
-22 -29 -36 0
-25 28 -37 0
18 33 -30 0
-10 -5 38 0
37 -14 18 0
-31 20 48 0
-1 2 51 0
1 2 -51 0
-1 -2 -51 0
1 -2 51 0
-4 5 52 0
4 5 -52 0
-4 -5 -52 0
4 -5 52 0
-6 9 53 0
6 9 -53 0
-6 -9 -53 0
6 -9 53 0
12 13 54 0
-12 13 -54 0
12 -13 -54 0
-12 -13 54 0
-14 -15 55 0
14 -15 -55 0
-14 15 -55 0
14 15 55 0
-16 -18 56 0
16 -18 -56 0
-16 18 -56 0
16 18 56 0
22 23 57 0
-22 23 -57 0
22 -23 -57 0
-22 -23 57 0
-24 25 58 0
24 25 -58 0
-24 -25 -58 0
24 -25 58 0
27 -29 59 0
-27 -29 -59 0
27 29 -59 0
-27 29 59 0
32 -33 60 0
-32 -33 -60 0
32 33 -60 0
-32 33 60 0
-36 37 61 0
36 37 -61 0
-36 -37 -61 0
36 -37 61 0
38 -40 62 0
-38 -40 -62 0
38 40 -62 0
-38 40 62 0
43 44 63 0
-43 44 -63 0
43 -44 -63 0
-43 -44 63 0
-46 48 64 0
46 48 -64 0
-46 -48 -64 0
46 -48 64 0
50 -51 65 0
-50 -51 -65 0
50 51 -65 0
-50 51 65 0
52 -53 66 0
-52 -53 -66 0
52 53 -66 0
-52 53 66 0
54 -55 67 0
-54 -55 -67 0
54 55 -67 0
-54 55 67 0
56 -57 68 0
-56 -57 -68 0
56 57 -68 0
-56 57 68 0
58 -59 69 0
-58 -59 -69 0
58 59 -69 0
-58 59 69 0
60 -61 70 0
-60 -61 -70 0
60 61 -70 0
-60 61 70 0
62 -63 71 0
-62 -63 -71 0
62 63 -71 0
-62 63 71 0
64 -65 72 0
-64 -65 -72 0
64 65 -72 0
-64 65 72 0
66 -67 73 0
-66 -67 -73 0
66 67 -73 0
-66 67 73 0
68 -69 74 0
-68 -69 -74 0
68 69 -74 0
-68 69 74 0
70 -71 75 0
-70 -71 -75 0
70 71 -75 0
-70 71 75 0
72 -73 76 0
-72 -73 -76 0
72 73 -76 0
-72 73 76 0
74 -75 77 0
-74 -75 -77 0
74 75 -77 0
-74 75 77 0
76 77 0
-76 -77 0
1 3 78 0
-1 3 -78 0
1 -3 -78 0
-1 -3 78 0
4 6 79 0
-4 6 -79 0
4 -6 -79 0
-4 -6 79 0
-7 -10 80 0
7 -10 -80 0
-7 10 -80 0
7 10 80 0
-12 13 81 0
12 13 -81 0
-12 -13 -81 0
12 -13 81 0
-17 18 82 0
17 18 -82 0
-17 -18 -82 0
17 -18 82 0
-20 -23 83 0
20 -23 -83 0
-20 23 -83 0
20 23 83 0
-24 26 84 0
24 26 -84 0
-24 -26 -84 0
24 -26 84 0
27 -29 85 0
-27 -29 -85 0
27 29 -85 0
-27 29 85 0
-32 -34 86 0
32 -34 -86 0
-32 34 -86 0
32 34 86 0
35 36 87 0
-35 36 -87 0
35 -36 -87 0
-35 -36 87 0
-38 40 88 0
38 40 -88 0
-38 -40 -88 0
38 -40 88 0
42 43 89 0
-42 43 -89 0
42 -43 -89 0
-42 -43 89 0
45 -47 90 0
-45 -47 -90 0
45 47 -90 0
-45 47 90 0
48 49 91 0
-48 49 -91 0
48 -49 -91 0
-48 -49 91 0
77 -78 92 0
-77 -78 -92 0
77 78 -92 0
-77 78 92 0
79 -80 93 0
-79 -80 -93 0
79 80 -93 0
-79 80 93 0
81 -82 94 0
-81 -82 -94 0
81 82 -94 0
-81 82 94 0
83 -84 95 0
-83 -84 -95 0
83 84 -95 0
-83 84 95 0
85 -86 96 0
-85 -86 -96 0
85 86 -96 0
-85 86 96 0
87 -88 97 0
-87 -88 -97 0
87 88 -97 0
-87 88 97 0
89 -90 98 0
-89 -90 -98 0
89 90 -98 0
-89 90 98 0
91 -92 99 0
-91 -92 -99 0
91 92 -99 0
-91 92 99 0
93 -94 100 0
-93 -94 -100 0
93 94 -100 0
-93 94 100 0
95 -96 101 0
-95 -96 -101 0
95 96 -101 0
-95 96 101 0
97 -98 102 0
-97 -98 -102 0
97 98 -102 0
-97 98 102 0
99 -100 103 0
-99 -100 -103 0
99 100 -103 0
-99 100 103 0
101 -102 104 0
-101 -102 -104 0
101 102 -104 0
-101 102 104 0
103 104 0
-103 -104 0
-1 -2 105 0
1 -2 -105 0
-1 2 -105 0
1 2 105 0
4 -5 106 0
-4 -5 -106 0
4 5 -106 0
-4 5 106 0
-10 12 107 0
10 12 -107 0
-10 -12 -107 0
10 -12 107 0
15 18 108 0
-15 18 -108 0
15 -18 -108 0
-15 -18 108 0
19 20 109 0
-19 20 -109 0
19 -20 -109 0
-19 -20 109 0
-21 -22 110 0
21 -22 -110 0
-21 22 -110 0
21 22 110 0
-25 26 111 0
25 26 -111 0
-25 -26 -111 0
25 -26 111 0
28 29 112 0
-28 29 -112 0
28 -29 -112 0
-28 -29 112 0
31 32 113 0
-31 32 -113 0
31 -32 -113 0
-31 -32 113 0
37 -39 114 0
-37 -39 -114 0
37 39 -114 0
-37 39 114 0
-44 46 115 0
44 46 -115 0
-44 -46 -115 0
44 -46 115 0
104 -105 116 0
-104 -105 -116 0
104 105 -116 0
-104 105 116 0
106 -107 117 0
-106 -107 -117 0
106 107 -117 0
-106 107 117 0
108 -109 118 0
-108 -109 -118 0
108 109 -118 0
-108 109 118 0
110 -111 119 0
-110 -111 -119 0
110 111 -119 0
-110 111 119 0
112 -113 120 0
-112 -113 -120 0
112 113 -120 0
-112 113 120 0
114 -115 121 0
-114 -115 -121 0
114 115 -121 0
-114 115 121 0
116 -117 122 0
-116 -117 -122 0
116 117 -122 0
-116 117 122 0
118 -119 123 0
-118 -119 -123 0
118 119 -123 0
-118 119 123 0
120 -121 124 0
-120 -121 -124 0
120 121 -124 0
-120 121 124 0
-122 -123 124 0
122 -123 -124 0
-122 123 -124 0
122 123 124 0
1 3 125 0
-1 3 -125 0
1 -3 -125 0
-1 -3 125 0
6 -7 126 0
-6 -7 -126 0
6 7 -126 0
-6 7 126 0
-11 -12 127 0
11 -12 -127 0
-11 12 -127 0
11 12 127 0
-13 -14 128 0
13 -14 -128 0
-13 14 -128 0
13 14 128 0
-15 -16 129 0
15 -16 -129 0
-15 16 -129 0
15 16 129 0
20 -21 130 0
-20 -21 -130 0
20 21 -130 0
-20 21 130 0
23 27 131 0
-23 27 -131 0
23 -27 -131 0
-23 -27 131 0
-32 33 132 0
32 33 -132 0
-32 -33 -132 0
32 -33 132 0
34 36 133 0
-34 36 -133 0
34 -36 -133 0
-34 -36 133 0
-38 -39 134 0
38 -39 -134 0
-38 39 -134 0
38 39 134 0
-40 -41 135 0
40 -41 -135 0
-40 41 -135 0
40 41 135 0
44 -45 136 0
-44 -45 -136 0
44 45 -136 0
-44 45 136 0
-46 49 137 0
46 49 -137 0
-46 -49 -137 0
46 -49 137 0
125 -126 138 0
-125 -126 -138 0
125 126 -138 0
-125 126 138 0
127 -128 139 0
-127 -128 -139 0
127 128 -139 0
-127 128 139 0
129 -130 140 0
-129 -130 -140 0
129 130 -140 0
-129 130 140 0
131 -132 141 0
-131 -132 -141 0
131 132 -141 0
-131 132 141 0
133 -134 142 0
-133 -134 -142 0
133 134 -142 0
-133 134 142 0
135 -136 143 0
-135 -136 -143 0
135 136 -143 0
-135 136 143 0
137 -138 144 0
-137 -138 -144 0
137 138 -144 0
-137 138 144 0
139 -140 145 0
-139 -140 -145 0
139 140 -145 0
-139 140 145 0
141 -142 146 0
-141 -142 -146 0
141 142 -146 0
-141 142 146 0
143 -144 147 0
-143 -144 -147 0
143 144 -147 0
-143 144 147 0
145 -146 148 0
-145 -146 -148 0
145 146 -148 0
-145 146 148 0
147 148 0
-147 -148 0
-1 -2 149 0
1 -2 -149 0
-1 2 -149 0
1 2 149 0
-3 -4 150 0
3 -4 -150 0
-3 4 -150 0
3 4 150 0
-5 -6 151 0
5 -6 -151 0
-5 6 -151 0
5 6 151 0
7 8 152 0
-7 8 -152 0
7 -8 -152 0
-7 -8 152 0
-12 13 153 0
12 13 -153 0
-12 -13 -153 0
12 -13 153 0
-16 -18 154 0
16 -18 -154 0
-16 18 -154 0
16 18 154 0
20 -22 155 0
-20 -22 -155 0
20 22 -155 0
-20 22 155 0
-25 -28 156 0
25 -28 -156 0
-25 28 -156 0
25 28 156 0
29 31 157 0
-29 31 -157 0
29 -31 -157 0
-29 -31 157 0
-32 33 158 0
32 33 -158 0
-32 -33 -158 0
32 -33 158 0
-34 35 159 0
34 35 -159 0
-34 -35 -159 0
34 -35 159 0
-36 37 160 0
36 37 -160 0
-36 -37 -160 0
36 -37 160 0
38 39 161 0
-38 39 -161 0
38 -39 -161 0
-38 -39 161 0
41 -42 162 0
-41 -42 -162 0
41 42 -162 0
-41 42 162 0
44 45 163 0
-44 45 -163 0
44 -45 -163 0
-44 -45 163 0
-47 -48 164 0
47 -48 -164 0
-47 48 -164 0
47 48 164 0
149 -150 165 0
-149 -150 -165 0
149 150 -165 0
-149 150 165 0
151 -152 166 0
-151 -152 -166 0
151 152 -166 0
-151 152 166 0
153 -154 167 0
-153 -154 -167 0
153 154 -167 0
-153 154 167 0
155 -156 168 0
-155 -156 -168 0
155 156 -168 0
-155 156 168 0
157 -158 169 0
-157 -158 -169 0
157 158 -169 0
-157 158 169 0
159 -160 170 0
-159 -160 -170 0
159 160 -170 0
-159 160 170 0
161 -162 171 0
-161 -162 -171 0
161 162 -171 0
-161 162 171 0
163 -164 172 0
-163 -164 -172 0
163 164 -172 0
-163 164 172 0
165 -166 173 0
-165 -166 -173 0
165 166 -173 0
-165 166 173 0
167 -168 174 0
-167 -168 -174 0
167 168 -174 0
-167 168 174 0
169 -170 175 0
-169 -170 -175 0
169 170 -175 0
-169 170 175 0
171 -172 176 0
-171 -172 -176 0
171 172 -176 0
-171 172 176 0
173 -174 177 0
-173 -174 -177 0
173 174 -177 0
-173 174 177 0
175 -176 178 0
-175 -176 -178 0
175 176 -178 0
-175 176 178 0
177 178 0
-177 -178 0
4 7 179 0
-4 7 -179 0
4 -7 -179 0
-4 -7 179 0
8 9 180 0
-8 9 -180 0
8 -9 -180 0
-8 -9 180 0
10 11 181 0
-10 11 -181 0
10 -11 -181 0
-10 -11 181 0
-12 16 182 0
12 16 -182 0
-12 -16 -182 0
12 -16 182 0
17 18 183 0
-17 18 -183 0
17 -18 -183 0
-17 -18 183 0
-23 -27 184 0
23 -27 -184 0
-23 27 -184 0
23 27 184 0
29 32 185 0
-29 32 -185 0
29 -32 -185 0
-29 -32 185 0
33 34 186 0
-33 34 -186 0
33 -34 -186 0
-33 -34 186 0
-35 -36 187 0
35 -36 -187 0
-35 36 -187 0
35 36 187 0
37 -39 188 0
-37 -39 -188 0
37 39 -188 0
-37 39 188 0
40 -43 189 0
-40 -43 -189 0
40 43 -189 0
-40 43 189 0
-45 -46 190 0
45 -46 -190 0
-45 46 -190 0
45 46 190 0
-48 -49 191 0
48 -49 -191 0
-48 49 -191 0
48 49 191 0
178 -179 192 0
-178 -179 -192 0
178 179 -192 0
-178 179 192 0
180 -181 193 0
-180 -181 -193 0
180 181 -193 0
-180 181 193 0
182 -183 194 0
-182 -183 -194 0
182 183 -194 0
-182 183 194 0
184 -185 195 0
-184 -185 -195 0
184 185 -195 0
-184 185 195 0
186 -187 196 0
-186 -187 -196 0
186 187 -196 0
-186 187 196 0
188 -189 197 0
-188 -189 -197 0
188 189 -197 0
-188 189 197 0
190 -191 198 0
-190 -191 -198 0
190 191 -198 0
-190 191 198 0
192 -193 199 0
-192 -193 -199 0
192 193 -199 0
-192 193 199 0
194 -195 200 0
-194 -195 -200 0
194 195 -200 0
-194 195 200 0
196 -197 201 0
-196 -197 -201 0
196 197 -201 0
-196 197 201 0
198 -199 202 0
-198 -199 -202 0
198 199 -202 0
-198 199 202 0
200 -201 203 0
-200 -201 -203 0
200 201 -203 0
-200 201 203 0
202 203 0
-202 -203 0
-2 4 204 0
2 4 -204 0
-2 -4 -204 0
2 -4 204 0
7 -9 205 0
-7 -9 -205 0
7 9 -205 0
-7 9 205 0
10 11 206 0
-10 11 -206 0
10 -11 -206 0
-10 -11 206 0
13 14 207 0
-13 14 -207 0
13 -14 -207 0
-13 -14 207 0
-16 18 208 0
16 18 -208 0
-16 -18 -208 0
16 -18 208 0
-19 -21 209 0
19 -21 -209 0
-19 21 -209 0
19 21 209 0
22 -23 210 0
-22 -23 -210 0
22 23 -210 0
-22 23 210 0
26 27 211 0
-26 27 -211 0
26 -27 -211 0
-26 -27 211 0
29 32 212 0
-29 32 -212 0
29 -32 -212 0
-29 -32 212 0
-36 -37 213 0
36 -37 -213 0
-36 37 -213 0
36 37 213 0
-38 -39 214 0
38 -39 -214 0
-38 39 -214 0
38 39 214 0
-40 41 215 0
40 41 -215 0
-40 -41 -215 0
40 -41 215 0
-42 43 216 0
42 43 -216 0
-42 -43 -216 0
42 -43 216 0
44 -45 217 0
-44 -45 -217 0
44 45 -217 0
-44 45 217 0
46 -47 218 0
-46 -47 -218 0
46 47 -218 0
-46 47 218 0
-48 50 219 0
48 50 -219 0
-48 -50 -219 0
48 -50 219 0
204 -205 220 0
-204 -205 -220 0
204 205 -220 0
-204 205 220 0
206 -207 221 0
-206 -207 -221 0
206 207 -221 0
-206 207 221 0
208 -209 222 0
-208 -209 -222 0
208 209 -222 0
-208 209 222 0
210 -211 223 0
-210 -211 -223 0
210 211 -223 0
-210 211 223 0
212 -213 224 0
-212 -213 -224 0
212 213 -224 0
-212 213 224 0
214 -215 225 0
-214 -215 -225 0
214 215 -225 0
-214 215 225 0
216 -217 226 0
-216 -217 -226 0
216 217 -226 0
-216 217 226 0
218 -219 227 0
-218 -219 -227 0
218 219 -227 0
-218 219 227 0
220 -221 228 0
-220 -221 -228 0
220 221 -228 0
-220 221 228 0
222 -223 229 0
-222 -223 -229 0
222 223 -229 0
-222 223 229 0
224 -225 230 0
-224 -225 -230 0
224 225 -230 0
-224 225 230 0
226 -227 231 0
-226 -227 -231 0
226 227 -231 0
-226 227 231 0
228 -229 232 0
-228 -229 -232 0
228 229 -232 0
-228 229 232 0
230 -231 233 0
-230 -231 -233 0
230 231 -233 0
-230 231 233 0
232 233 0
-232 -233 0
3 -4 234 0
-3 -4 -234 0
3 4 -234 0
-3 4 234 0
8 -9 235 0
-8 -9 -235 0
8 9 -235 0
-8 9 235 0
10 -13 236 0
-10 -13 -236 0
10 13 -236 0
-10 13 236 0
-15 -16 237 0
15 -16 -237 0
-15 16 -237 0
15 16 237 0
-20 21 238 0
20 21 -238 0
-20 -21 -238 0
20 -21 238 0
22 -23 239 0
-22 -23 -239 0
22 23 -239 0
-22 23 239 0
-25 26 240 0
25 26 -240 0
-25 -26 -240 0
25 -26 240 0
-27 28 241 0
27 28 -241 0
-27 -28 -241 0
27 -28 241 0
-29 -30 242 0
29 -30 -242 0
-29 30 -242 0
29 30 242 0
31 32 243 0
-31 32 -243 0
31 -32 -243 0
-31 -32 243 0
33 -37 244 0
-33 -37 -244 0
33 37 -244 0
-33 37 244 0
-42 44 245 0
42 44 -245 0
-42 -44 -245 0
42 -44 245 0
-47 -48 246 0
47 -48 -246 0
-47 48 -246 0
47 48 246 0
233 -234 247 0
-233 -234 -247 0
233 234 -247 0
-233 234 247 0
235 -236 248 0
-235 -236 -248 0
235 236 -248 0
-235 236 248 0
237 -238 249 0
-237 -238 -249 0
237 238 -249 0
-237 238 249 0
239 -240 250 0
-239 -240 -250 0
239 240 -250 0
-239 240 250 0
241 -242 251 0
-241 -242 -251 0
241 242 -251 0
-241 242 251 0
243 -244 252 0
-243 -244 -252 0
243 244 -252 0
-243 244 252 0
245 -246 253 0
-245 -246 -253 0
245 246 -253 0
-245 246 253 0
247 -248 254 0
-247 -248 -254 0
247 248 -254 0
-247 248 254 0
249 -250 255 0
-249 -250 -255 0
249 250 -255 0
-249 250 255 0
251 -252 256 0
-251 -252 -256 0
251 252 -256 0
-251 252 256 0
253 -254 257 0
-253 -254 -257 0
253 254 -257 0
-253 254 257 0
255 -256 258 0
-255 -256 -258 0
255 256 -258 0
-255 256 258 0
257 258 0
-257 -258 0
-1 -2 259 0
1 -2 -259 0
-1 2 -259 0
1 2 259 0
-4 -17 260 0
4 -17 -260 0
-4 17 -260 0
4 17 260 0
-20 -22 261 0
20 -22 -261 0
-20 22 -261 0
20 22 261 0
24 -34 262 0
-24 -34 -262 0
24 34 -262 0
-24 34 262 0
35 -36 263 0
-35 -36 -263 0
35 36 -263 0
-35 36 263 0
37 -38 264 0
-37 -38 -264 0
37 38 -264 0
-37 38 264 0
42 -46 265 0
-42 -46 -265 0
42 46 -265 0
-42 46 265 0
47 48 266 0
-47 48 -266 0
47 -48 -266 0
-47 -48 266 0
258 -259 267 0
-258 -259 -267 0
258 259 -267 0
-258 259 267 0
260 -261 268 0
-260 -261 -268 0
260 261 -268 0
-260 261 268 0
262 -263 269 0
-262 -263 -269 0
262 263 -269 0
-262 263 269 0
264 -265 270 0
-264 -265 -270 0
264 265 -270 0
-264 265 270 0
266 -267 271 0
-266 -267 -271 0
266 267 -271 0
-266 267 271 0
268 -269 272 0
-268 -269 -272 0
268 269 -272 0
-268 269 272 0
-270 -271 272 0
270 -271 -272 0
-270 271 -272 0
270 271 272 0
1 5 273 0
-1 5 -273 0
1 -5 -273 0
-1 -5 273 0
6 -10 274 0
-6 -10 -274 0
6 10 -274 0
-6 10 274 0
-12 -14 275 0
12 -14 -275 0
-12 14 -275 0
12 14 275 0
16 19 276 0
-16 19 -276 0
16 -19 -276 0
-16 -19 276 0
-22 23 277 0
22 23 -277 0
-22 -23 -277 0
22 -23 277 0
-25 26 278 0
25 26 -278 0
-25 -26 -278 0
25 -26 278 0
32 -35 279 0
-32 -35 -279 0
32 35 -279 0
-32 35 279 0
-40 -44 280 0
40 -44 -280 0
-40 44 -280 0
40 44 280 0
45 -46 281 0
-45 -46 -281 0
45 46 -281 0
-45 46 281 0
47 -49 282 0
-47 -49 -282 0
47 49 -282 0
-47 49 282 0
272 -273 283 0
-272 -273 -283 0
272 273 -283 0
-272 273 283 0
274 -275 284 0
-274 -275 -284 0
274 275 -284 0
-274 275 284 0
276 -277 285 0
-276 -277 -285 0
276 277 -285 0
-276 277 285 0
278 -279 286 0
-278 -279 -286 0
278 279 -286 0
-278 279 286 0
280 -281 287 0
-280 -281 -287 0
280 281 -287 0
-280 281 287 0
282 -283 288 0
-282 -283 -288 0
282 283 -288 0
-282 283 288 0
284 -285 289 0
-284 -285 -289 0
284 285 -289 0
-284 285 289 0
286 -287 290 0
-286 -287 -290 0
286 287 -290 0
-286 287 290 0
-288 -289 290 0
288 -289 -290 0
-288 289 -290 0
288 289 290 0
